param set_len = 28;
param target_sum = 17728403;
param values := [0] 305300 [1] 1341812 [2] 1945978 [3] 1275106 [4] 1964572 [5] 403265 [6] 2065698 [7] 733390 [8] 1748384 [9] 1344586 [10] 1981828 [11] 1882930 [12] 357716 [13] 1493249 [14] 1026138 [15] 2057852 [16] 494657 [17] 982427 [18] 1218980 [19] 1134347 [20] 1225439 [21] 121450 [22] 2031491 [23] 1014693 [24] 716482 [25] 552493 [26] 1944802 [27] 1639078 ;
